============================[ Problem Statistics ]=============================|                                                                             ||  Number of variables:          4242                                         ||  Number of clauses:           10388                                         ||  Parse time:                   0.77 s                                       ||                                                                             |============================[ Search Statistics ]==============================| Conflicts |          ORIGINAL         |          LEARNT          | Progress ||           |    Vars  Clauses Literals |    Limit  Clauses Lit/Cl |          |===============================================================================|       100 |    1591     6593  1236864 |     2417      100     53 | 62.501 % ||       250 |    1591     6593  1236864 |     2659      250     75 | 62.495 % |===============================================================================restarts              : 4conflicts             : 419            (359 /sec)decisions             : 780            (0.00 % random) (668 /sec)propagations          : 13683          (11715 /sec)conflict literals     : 35063          (94.51 % deleted)CPU time              : 1.168 sSATISFIABLE